NAME : rajds
COMMENT : Rajastan locations data set with 20 points
COMMENT : IIITV, Vadodara
COMMENT : Contributed by team schrodinger cat
TYPE : TSP
DIMENSION : 500
EDGE_WEIGHT_TYPE : EUC_2D
NODE_COORD_SECTION
Ajmer 148 314
beawar 90 385
Bijainagar 150 420
Chomu 344 168
Dausa 455 292
Didwana 136 120
Jaipur 356 221
Kishangarh 187 287
Kuchaman_city 187 173
Makrana 162 197
Malpura 281 345
Merta 38 274
Nasirabad 165 345
Navalgudh 260 29
Neem_ka_Thana 355 51
Niwai 383 332
Sawai_Madhopur 461 404
Sikar 239 77
Sujangarh 115 58
Tonk 358 373
EOF
